units           metal
atom_style	atomic
boundary        p p p

read_data       GB.data

pair_style eam/alloy
pair_coeff * * W_Zhou04.eam.alloy Fe
neighbor	0.5 bin
neigh_modify    every 1 delay 5 check yes

thermo 100

thermo_style custom step temp pe press pxx pyy pzz pxy pxz pyz lx ly lz vol

min_style cg

minimize 0 0.001 2000 10000

fix 1 all box/relax aniso 0.0 vmax 0.001

min_style cg

minimize 0 0.001 2000 10000

unfix 1
